\ Model opf_with_dc_load_flow_copy_copy
\ LP format - for model browsing. Use MPS format to capture full model detail.
Minimize
 
Subject To
 heat_demand_coverage_644_2: flexible_load_644[2]
   - 0.3333333333333333 ts_in_644_2 + 0.3333333333333333 ts_out_644_2
   >= 0.456642432568073
 power_flow_644_1: 54.94505494505496 theta_644[1]
   - 109.8901098901099 theta_644[2] + 54.94505494505496 theta_644[3]
   - flexible_load_644[2] = 0
 power_flow_644_2: 54.94505494505496 theta_644[2]
   - 172.8574455847183 theta_644[3] + 54.94505494505496 theta_644[4]
   + 62.96733569460844 theta_644[11] = 0
 power_flow_644_3: 54.94505494505496 theta_644[3]
   - 163.86211191406 theta_644[4] + 54.94505494505496 theta_644[5]
   + 53.97200202395009 theta_644[12] = 0
 power_flow_644_4: 54.94505494505496 theta_644[4]
   - 109.8901098901099 theta_644[5] + 54.94505494505496 theta_644[6] = 0
 power_flow_644_5: 54.94505494505496 theta_644[5]
   - 172.8574455847183 theta_644[6] + 54.94505494505496 theta_644[7]
   + 62.96733569460844 theta_644[16] = 0
 power_flow_644_6: 54.94505494505496 theta_644[6]
   - 109.8901098901099 theta_644[7] + 54.94505494505496 theta_644[8] = 0
 power_flow_644_7: 54.94505494505496 theta_644[7]
   - 109.8901098901099 theta_644[8] + 54.94505494505496 theta_644[9] = 0
 power_flow_644_8: 54.94505494505496 theta_644[8]
   - 172.8574455847183 theta_644[9] + 54.94505494505496 theta_644[10]
   + 62.96733569460844 theta_644[17] = 0
 power_flow_644_9: 54.94505494505496 theta_644[9]
   - 117.9123906396634 theta_644[10] + 62.96733569460844 theta_644[18] = 0
 power_flow_644_10: 62.96733569460844 theta_644[3]
   - 62.96733569460844 theta_644[11] = 0.032594272728814
 power_flow_644_11: 53.97200202395009 theta_644[4]
   - 107.9440040479002 theta_644[12] + 53.97200202395009 theta_644[13] = 0
 power_flow_644_12: 53.97200202395009 theta_644[12]
   - 107.9440040479002 theta_644[13] + 53.97200202395009 theta_644[14] = 0
 power_flow_644_13: 53.97200202395009 theta_644[13]
   - 116.9393377185585 theta_644[14] + 62.96733569460844 theta_644[15] = 0
 power_flow_644_14: 62.96733569460844 theta_644[14]
   - 62.96733569460844 theta_644[15] = 0.032594272728814
 power_flow_644_15: 62.96733569460844 theta_644[6]
   - 62.96733569460844 theta_644[16] = 0.032594272728814
 power_flow_644_16: 62.96733569460844 theta_644[9]
   - 62.96733569460844 theta_644[17] = 0.032594272728814
 power_flow_644_17: 62.96733569460844 theta_644[10]
   - 62.96733569460844 theta_644[18] = 0.032594272728814
 abs_current_mag_ka_pos_0_644: - 79.30635565791562 theta_644[1]
   + 79.30635565791562 theta_644[2] + abs_current_mag_ka_0_644 >= 0
 abs_current_mag_constraint_644_0: abs_current_mag_ka_0_644 <= 0.31
Bounds
 theta_644[1] free
 theta_644[2] free
 theta_644[3] free
 theta_644[4] free
 theta_644[5] free
 theta_644[6] free
 theta_644[7] free
 theta_644[8] free
 theta_644[9] free
 theta_644[10] free
 theta_644[11] free
 theta_644[12] free
 theta_644[13] free
 theta_644[14] free
 theta_644[15] free
 theta_644[16] free
 theta_644[17] free
 theta_644[18] free
 flexible_load_644[2] free
 -infinity <= ts_out_644_2 <= 1
 abs_current_mag_ka_0_644 free
End
